2 2147483806 2147483886 
5 
8 
11 2147483806 2147483886 
18 2147483806 2147483886 
19 2147483806 2147483886 
22 2147483650 2147483710 2147483717 
23 
24 
25 2147483650 2147483710 2147483717 
26 2147483650 2147483710 2147483717 
27 2147483650 2147483710 2147483717 
32 2147483650 2147483710 2147483717 
49 2147483654 2147483658 2147483664 2147483668 2147483672 2147483682 2147483686 2147483692 2147483696 2147483700 2147483705 2147483706 2147483707 2147483708 2147483709 2147483711 2147483712 2147483889 2147483895 2147483896 2147483900 2147483907 2147483908 
50 
51 
52 2147483654 2147483658 2147483664 2147483668 2147483672 2147483682 2147483686 2147483692 2147483696 2147483700 2147483705 2147483706 2147483707 2147483708 2147483709 2147483711 2147483712 2147483720 2147483722 2147483889 2147483895 2147483896 2147483900 2147483907 2147483908 
53 2147483654 2147483658 2147483664 2147483668 2147483672 2147483682 2147483686 2147483692 2147483696 2147483700 2147483705 2147483706 2147483707 2147483708 2147483709 2147483711 2147483712 2147483720 2147483722 2147483889 2147483895 2147483896 2147483900 2147483907 2147483908 
54 2147483654 2147483658 2147483664 2147483668 2147483672 2147483682 2147483686 2147483692 2147483696 2147483700 2147483705 2147483706 2147483707 2147483708 2147483709 2147483711 2147483712 2147483720 2147483722 2147483889 2147483895 2147483896 2147483900 2147483907 2147483908 
57 2147483654 2147483658 2147483664 2147483668 2147483672 2147483682 2147483686 2147483692 2147483696 2147483700 2147483705 2147483706 2147483707 2147483708 2147483709 2147483711 2147483712 2147483720 2147483722 2147483889 2147483895 2147483896 2147483900 2147483907 2147483908 
61 2147483806 2147483886 
127 2147483654 2147483658 2147483664 2147483668 2147483672 2147483682 2147483686 2147483692 2147483696 2147483700 2147483705 2147483706 2147483707 2147483708 2147483709 2147483711 2147483712 2147483720 2147483722 2147483889 2147483895 2147483896 2147483900 2147483907 2147483908 
128 2147483654 2147483658 2147483664 2147483668 2147483672 2147483682 2147483686 2147483692 2147483696 2147483700 2147483705 2147483706 2147483707 2147483708 2147483709 2147483711 2147483712 2147483720 2147483889 2147483895 2147483896 2147483900 2147483907 2147483908 
129 2147483654 2147483658 2147483664 2147483668 2147483672 2147483682 2147483686 2147483692 2147483696 2147483700 2147483705 2147483706 2147483707 2147483708 2147483709 2147483711 2147483712 2147483889 2147483895 2147483896 2147483900 2147483907 2147483908 
130 2147483654 2147483658 2147483664 2147483668 2147483672 2147483682 2147483686 2147483692 2147483696 2147483700 2147483705 2147483706 2147483707 2147483708 2147483709 2147483711 2147483712 2147483889 2147483895 2147483896 2147483900 2147483907 2147483908 
131 
132 
133 
134 
247 2147483806 2147483886 
248 2147483806 2147483886 
249 2147483806 2147483886 
250 2147483806 2147483886 
251 
252 
253 
254 
263 2147483650 2147483710 2147483717 
264 2147483650 2147483710 2147483717 
265 2147483650 2147483710 2147483717 
266 2147483650 2147483710 2147483717 
267 
268 
269 
270 
2147483650 2147483654 2147483658 2147483664 2147483668 2147483672 2147483682 2147483686 2147483705 2147483706 2147483707 2147483708 2147483709 2147483717 2147483730 2147483731 2147483744 2147483748 2147483750 2147483754 2147483766 2147483770 2147483772 2147483776 2147483781 2147483785 2147483796 2147483800 2147483806 2147483809 2147483810 2147483823 2147483827 2147483829 2147483833 2147483891 2147483893 2147483895 2147483896 2147483900 2147483903 2147483910 2147483911 22 25 27 32 26 263 264 265 266 2147483654 2147483658 2147483664 2147483668 2147483672 2147483682 2147483686 2147483705 2147483706 2147483707 2147483708 2147483709 2147483717 2147483730 2147483731 2147483744 2147483748 2147483750 2147483754 2147483766 2147483770 2147483772 2147483776 2147483781 2147483785 2147483796 2147483800 2147483806 2147483809 2147483810 2147483823 2147483827 2147483829 2147483833 2147483891 2147483893 2147483895 2147483896 2147483900 2147483903 2147483910 2147483911 
2147483654 2147483650 2147483650 2147483658 2147483664 2147483668 2147483672 2147483705 2147483706 2147483707 2147483708 2147483709 2147483717 2147483744 2147483748 2147483750 2147483754 2147483766 2147483770 2147483772 2147483776 2147483781 2147483785 2147483796 2147483800 2147483891 2147483893 2147483895 2147483900 2147483910 2147483911 49 52 54 57 53 127 128 129 130 2147483658 2147483664 2147483668 2147483672 2147483705 2147483706 2147483707 2147483708 2147483709 2147483717 2147483744 2147483748 2147483750 2147483754 2147483766 2147483770 2147483772 2147483776 2147483781 2147483785 2147483796 2147483800 2147483891 2147483893 2147483895 2147483900 2147483910 2147483911 
2147483658 2147483650 2147483654 2147483650 2147483654 2147483705 2147483706 2147483707 2147483708 2147483709 2147483717 2147483900 49 52 54 57 53 127 128 129 130 2147483705 2147483706 2147483707 2147483708 2147483709 2147483717 2147483900 
2147483664 2147483650 2147483654 2147483650 2147483654 2147483705 2147483706 2147483707 2147483708 2147483709 2147483717 2147483900 49 52 54 57 53 127 128 129 130 2147483705 2147483706 2147483707 2147483708 2147483709 2147483717 2147483900 
2147483668 2147483650 2147483654 2147483650 2147483654 2147483705 2147483706 2147483707 2147483708 2147483709 2147483717 2147483900 49 52 54 57 53 127 128 129 130 2147483705 2147483706 2147483707 2147483708 2147483709 2147483717 2147483900 
2147483672 2147483650 2147483654 2147483650 2147483654 2147483705 2147483706 2147483707 2147483708 2147483709 2147483717 2147483895 2147483900 49 52 54 57 53 127 128 129 130 2147483705 2147483706 2147483707 2147483708 2147483709 2147483717 2147483895 2147483900 
2147483682 2147483650 2147483650 2147483686 2147483692 2147483696 2147483700 2147483706 2147483707 2147483708 2147483709 2147483717 2147483823 2147483827 2147483829 2147483833 2147483846 2147483850 2147483852 2147483856 2147483861 2147483865 2147483876 2147483880 2147483903 2147483905 2147483907 2147483912 2147483913 49 52 54 57 53 127 128 129 130 2147483686 2147483692 2147483696 2147483700 2147483706 2147483707 2147483708 2147483709 2147483717 2147483823 2147483827 2147483829 2147483833 2147483846 2147483850 2147483852 2147483856 2147483861 2147483865 2147483876 2147483880 2147483903 2147483905 2147483907 2147483912 2147483913 
2147483686 2147483650 2147483682 2147483650 2147483682 2147483706 2147483707 2147483708 2147483709 2147483717 49 52 54 57 53 127 128 129 130 2147483706 2147483707 2147483708 2147483709 2147483717 
2147483692 2147483682 2147483682 2147483706 2147483707 2147483708 2147483709 2147483717 49 52 54 57 53 127 128 129 130 2147483706 2147483707 2147483708 2147483709 2147483717 
2147483696 2147483682 2147483682 2147483706 2147483707 2147483708 2147483709 2147483717 49 52 54 57 53 127 128 129 130 2147483706 2147483707 2147483708 2147483709 2147483717 
2147483700 2147483682 2147483682 2147483706 2147483707 2147483708 2147483709 2147483717 2147483907 49 52 54 57 53 127 128 129 130 2147483706 2147483707 2147483708 2147483709 2147483717 2147483907 
2147483705 2147483650 2147483654 2147483658 2147483664 2147483668 2147483672 2147483650 2147483654 2147483658 2147483664 2147483668 2147483672 2147483706 2147483707 2147483708 2147483709 2147483710 2147483711 2147483712 2147483715 2147483717 2147483720 2147483722 2147483723 2147483730 2147483731 2147483744 2147483748 2147483750 2147483754 2147483766 2147483770 2147483772 2147483776 2147483781 2147483785 2147483796 2147483800 2147483806 2147483809 2147483810 2147483889 2147483891 2147483893 2147483895 2147483896 2147483900 2147483910 2147483911 53 49 52 54 57 127 128 129 130 2147483706 2147483707 2147483708 2147483709 2147483710 2147483711 2147483712 2147483715 2147483717 2147483720 2147483722 2147483723 2147483730 2147483731 2147483744 2147483748 2147483750 2147483754 2147483766 2147483770 2147483772 2147483776 2147483781 2147483785 2147483796 2147483800 2147483806 2147483809 2147483810 2147483889 2147483891 2147483893 2147483895 2147483896 2147483900 2147483910 2147483911 
2147483706 2147483650 2147483654 2147483658 2147483664 2147483668 2147483672 2147483682 2147483686 2147483692 2147483696 2147483700 2147483705 2147483650 2147483654 2147483658 2147483664 2147483668 2147483672 2147483682 2147483686 2147483692 2147483696 2147483700 2147483705 2147483707 2147483708 2147483709 2147483710 2147483711 2147483712 2147483715 2147483717 2147483720 2147483722 2147483723 2147483730 2147483731 2147483744 2147483748 2147483750 2147483754 2147483766 2147483770 2147483772 2147483776 2147483781 2147483785 2147483796 2147483800 2147483806 2147483809 2147483810 2147483823 2147483827 2147483829 2147483833 2147483846 2147483850 2147483852 2147483856 2147483861 2147483865 2147483876 2147483880 2147483886 2147483889 2147483891 2147483893 2147483895 2147483896 2147483900 2147483903 2147483905 2147483907 2147483908 2147483910 2147483911 2147483912 2147483913 57 54 49 52 53 127 128 129 130 2147483707 2147483708 2147483709 2147483710 2147483711 2147483712 2147483715 2147483717 2147483720 2147483722 2147483723 2147483730 2147483731 2147483744 2147483748 2147483750 2147483754 2147483766 2147483770 2147483772 2147483776 2147483781 2147483785 2147483796 2147483800 2147483806 2147483809 2147483810 2147483823 2147483827 2147483829 2147483833 2147483846 2147483850 2147483852 2147483856 2147483861 2147483865 2147483876 2147483880 2147483886 2147483889 2147483891 2147483893 2147483895 2147483896 2147483900 2147483903 2147483905 2147483907 2147483908 2147483910 2147483911 2147483912 2147483913 
2147483707 2147483650 2147483654 2147483658 2147483664 2147483668 2147483672 2147483682 2147483686 2147483692 2147483696 2147483700 2147483705 2147483706 2147483650 2147483654 2147483658 2147483664 2147483668 2147483672 2147483682 2147483686 2147483692 2147483696 2147483700 2147483705 2147483706 2147483708 2147483709 2147483710 2147483711 2147483712 2147483715 2147483717 2147483720 2147483722 2147483723 2147483730 2147483731 2147483744 2147483748 2147483750 2147483754 2147483766 2147483770 2147483772 2147483776 2147483781 2147483785 2147483796 2147483800 2147483806 2147483809 2147483810 2147483823 2147483827 2147483829 2147483833 2147483846 2147483850 2147483852 2147483856 2147483861 2147483865 2147483876 2147483880 2147483886 2147483889 2147483891 2147483893 2147483895 2147483896 2147483900 2147483903 2147483905 2147483907 2147483908 2147483910 2147483911 2147483912 2147483913 54 52 49 57 53 127 128 129 130 2147483708 2147483709 2147483710 2147483711 2147483712 2147483715 2147483717 2147483720 2147483722 2147483723 2147483730 2147483731 2147483744 2147483748 2147483750 2147483754 2147483766 2147483770 2147483772 2147483776 2147483781 2147483785 2147483796 2147483800 2147483806 2147483809 2147483810 2147483823 2147483827 2147483829 2147483833 2147483846 2147483850 2147483852 2147483856 2147483861 2147483865 2147483876 2147483880 2147483886 2147483889 2147483891 2147483893 2147483895 2147483896 2147483900 2147483903 2147483905 2147483907 2147483908 2147483910 2147483911 2147483912 2147483913 
2147483708 2147483650 2147483654 2147483658 2147483664 2147483668 2147483672 2147483682 2147483686 2147483692 2147483696 2147483700 2147483705 2147483706 2147483707 2147483650 2147483654 2147483658 2147483664 2147483668 2147483672 2147483682 2147483686 2147483692 2147483696 2147483700 2147483705 2147483706 2147483707 2147483709 2147483710 2147483711 2147483712 2147483715 2147483717 2147483720 2147483722 2147483723 2147483730 2147483731 2147483744 2147483748 2147483750 2147483754 2147483766 2147483770 2147483772 2147483776 2147483781 2147483785 2147483796 2147483800 2147483806 2147483809 2147483810 2147483823 2147483827 2147483829 2147483833 2147483846 2147483850 2147483852 2147483856 2147483861 2147483865 2147483876 2147483880 2147483886 2147483889 2147483891 2147483893 2147483895 2147483896 2147483900 2147483903 2147483905 2147483907 2147483908 2147483910 2147483911 2147483912 2147483913 52 127 49 54 57 53 128 129 130 2147483709 2147483710 2147483711 2147483712 2147483715 2147483717 2147483720 2147483722 2147483723 2147483730 2147483731 2147483744 2147483748 2147483750 2147483754 2147483766 2147483770 2147483772 2147483776 2147483781 2147483785 2147483796 2147483800 2147483806 2147483809 2147483810 2147483823 2147483827 2147483829 2147483833 2147483846 2147483850 2147483852 2147483856 2147483861 2147483865 2147483876 2147483880 2147483886 2147483889 2147483891 2147483893 2147483895 2147483896 2147483900 2147483903 2147483905 2147483907 2147483908 2147483910 2147483911 2147483912 2147483913 
2147483709 2147483650 2147483654 2147483658 2147483664 2147483668 2147483672 2147483682 2147483686 2147483692 2147483696 2147483700 2147483705 2147483706 2147483707 2147483708 2147483650 2147483654 2147483658 2147483664 2147483668 2147483672 2147483682 2147483686 2147483692 2147483696 2147483700 2147483705 2147483706 2147483707 2147483708 2147483710 2147483711 2147483712 2147483715 2147483717 2147483720 2147483722 2147483723 2147483730 2147483731 2147483744 2147483748 2147483750 2147483754 2147483766 2147483770 2147483772 2147483776 2147483781 2147483785 2147483796 2147483800 2147483806 2147483809 2147483810 2147483823 2147483827 2147483829 2147483833 2147483846 2147483850 2147483852 2147483856 2147483861 2147483865 2147483876 2147483880 2147483886 2147483889 2147483891 2147483893 2147483895 2147483896 2147483900 2147483903 2147483905 2147483907 2147483908 2147483910 2147483911 2147483912 2147483913 127 128 49 52 54 57 53 129 130 2147483710 2147483711 2147483712 2147483715 2147483717 2147483720 2147483722 2147483723 2147483730 2147483731 2147483744 2147483748 2147483750 2147483754 2147483766 2147483770 2147483772 2147483776 2147483781 2147483785 2147483796 2147483800 2147483806 2147483809 2147483810 2147483823 2147483827 2147483829 2147483833 2147483846 2147483850 2147483852 2147483856 2147483861 2147483865 2147483876 2147483880 2147483886 2147483889 2147483891 2147483893 2147483895 2147483896 2147483900 2147483903 2147483905 2147483907 2147483908 2147483910 2147483911 2147483912 2147483913 
2147483710 2147483705 2147483706 2147483707 2147483708 2147483709 2147483705 2147483706 2147483707 2147483708 2147483709 2147483711 2147483712 2147483715 2147483720 2147483722 2147483723 2147483889 264 32 22 25 27 26 263 265 266 2147483711 2147483712 2147483715 2147483720 2147483722 2147483723 2147483889 
2147483711 2147483705 2147483706 2147483707 2147483708 2147483709 2147483710 2147483705 2147483706 2147483707 2147483708 2147483709 2147483710 2147483712 2147483715 2147483720 2147483722 2147483723 2147483889 54 49 52 57 53 127 128 129 130 2147483712 2147483715 2147483720 2147483722 2147483723 2147483889 
2147483712 2147483705 2147483706 2147483707 2147483708 2147483709 2147483710 2147483711 2147483705 2147483706 2147483707 2147483708 2147483709 2147483710 2147483711 2147483715 2147483720 2147483722 2147483723 2147483889 52 49 54 57 53 127 128 129 130 2147483715 2147483720 2147483722 2147483723 2147483889 
2147483715 2147483705 2147483706 2147483707 2147483708 2147483709 2147483710 2147483711 2147483712 2147483705 2147483706 2147483707 2147483708 2147483709 2147483710 2147483711 2147483712 2147483720 2147483720 
2147483717 2147483650 2147483654 2147483658 2147483664 2147483668 2147483672 2147483682 2147483686 2147483692 2147483696 2147483700 2147483705 2147483706 2147483707 2147483708 2147483709 2147483650 2147483654 2147483658 2147483664 2147483668 2147483672 2147483682 2147483686 2147483692 2147483696 2147483700 2147483705 2147483706 2147483707 2147483708 2147483709 2147483730 2147483731 2147483744 2147483748 2147483750 2147483754 2147483766 2147483770 2147483772 2147483776 2147483781 2147483785 2147483796 2147483800 2147483806 2147483809 2147483810 2147483823 2147483827 2147483829 2147483833 2147483846 2147483850 2147483852 2147483856 2147483861 2147483865 2147483876 2147483880 2147483886 2147483891 2147483893 2147483895 2147483896 2147483900 2147483903 2147483905 2147483907 2147483908 2147483910 2147483911 2147483912 2147483913 22 25 27 32 26 263 264 265 266 2147483730 2147483731 2147483744 2147483748 2147483750 2147483754 2147483766 2147483770 2147483772 2147483776 2147483781 2147483785 2147483796 2147483800 2147483806 2147483809 2147483810 2147483823 2147483827 2147483829 2147483833 2147483846 2147483850 2147483852 2147483856 2147483861 2147483865 2147483876 2147483880 2147483886 2147483891 2147483893 2147483895 2147483896 2147483900 2147483903 2147483905 2147483907 2147483908 2147483910 2147483911 2147483912 2147483913 
2147483720 2147483705 2147483706 2147483707 2147483708 2147483709 2147483710 2147483711 2147483712 2147483715 2147483705 2147483706 2147483707 2147483708 2147483709 2147483710 2147483711 2147483712 2147483715 2147483722 2147483889 52 54 57 53 127 128 2147483722 2147483889 
2147483722 2147483705 2147483706 2147483707 2147483708 2147483709 2147483710 2147483711 2147483712 2147483720 2147483705 2147483706 2147483707 2147483708 2147483709 2147483710 2147483711 2147483712 2147483720 2147483889 52 54 57 53 127 2147483889 
2147483723 2147483705 2147483706 2147483707 2147483708 2147483709 2147483710 2147483711 2147483712 2147483705 2147483706 2147483707 2147483708 2147483709 2147483710 2147483711 2147483712 2147483889 2147483889 
2147483730 2147483650 2147483705 2147483706 2147483707 2147483708 2147483709 2147483717 2147483650 2147483705 2147483706 2147483707 2147483708 2147483709 2147483717 2147483900 2147483900 
2147483731 2147483650 2147483705 2147483706 2147483707 2147483708 2147483709 2147483717 2147483650 2147483705 2147483706 2147483707 2147483708 2147483709 2147483717 2147483900 2147483900 
2147483744 2147483650 2147483654 2147483705 2147483706 2147483707 2147483708 2147483709 2147483717 2147483650 2147483654 2147483705 2147483706 2147483707 2147483708 2147483709 2147483717 2147483891 2147483900 2147483891 2147483900 
2147483748 2147483650 2147483654 2147483705 2147483706 2147483707 2147483708 2147483709 2147483717 2147483650 2147483654 2147483705 2147483706 2147483707 2147483708 2147483709 2147483717 2147483900 2147483900 
2147483750 2147483650 2147483654 2147483705 2147483706 2147483707 2147483708 2147483709 2147483717 2147483650 2147483654 2147483705 2147483706 2147483707 2147483708 2147483709 2147483717 2147483900 2147483900 
2147483754 2147483650 2147483654 2147483705 2147483706 2147483707 2147483708 2147483709 2147483717 2147483650 2147483654 2147483705 2147483706 2147483707 2147483708 2147483709 2147483717 2147483900 2147483900 
2147483766 2147483650 2147483654 2147483705 2147483706 2147483707 2147483708 2147483709 2147483717 2147483650 2147483654 2147483705 2147483706 2147483707 2147483708 2147483709 2147483717 2147483893 2147483900 2147483893 2147483900 
2147483770 2147483650 2147483654 2147483705 2147483706 2147483707 2147483708 2147483709 2147483717 2147483650 2147483654 2147483705 2147483706 2147483707 2147483708 2147483709 2147483717 2147483900 2147483900 
2147483772 2147483650 2147483654 2147483705 2147483706 2147483707 2147483708 2147483709 2147483717 2147483650 2147483654 2147483705 2147483706 2147483707 2147483708 2147483709 2147483717 2147483900 2147483900 
2147483776 2147483650 2147483654 2147483705 2147483706 2147483707 2147483708 2147483709 2147483717 2147483650 2147483654 2147483705 2147483706 2147483707 2147483708 2147483709 2147483717 2147483900 2147483900 
2147483781 2147483650 2147483654 2147483705 2147483706 2147483707 2147483708 2147483709 2147483717 2147483650 2147483654 2147483705 2147483706 2147483707 2147483708 2147483709 2147483717 2147483900 2147483910 2147483900 2147483910 
2147483785 2147483650 2147483654 2147483705 2147483706 2147483707 2147483708 2147483709 2147483717 2147483650 2147483654 2147483705 2147483706 2147483707 2147483708 2147483709 2147483717 2147483900 2147483900 
2147483796 2147483650 2147483654 2147483705 2147483706 2147483707 2147483708 2147483709 2147483717 2147483650 2147483654 2147483705 2147483706 2147483707 2147483708 2147483709 2147483717 2147483895 2147483900 2147483911 2147483895 2147483900 2147483911 
2147483800 2147483650 2147483654 2147483705 2147483706 2147483707 2147483708 2147483709 2147483717 2147483650 2147483654 2147483705 2147483706 2147483707 2147483708 2147483709 2147483717 2147483895 2147483900 2147483895 2147483900 
2147483806 2147483650 2147483705 2147483706 2147483707 2147483708 2147483709 2147483717 2147483650 2147483705 2147483706 2147483707 2147483708 2147483709 2147483717 2147483896 2147483900 2 11 19 61 18 247 248 249 250 2147483896 2147483900 
2147483809 2147483650 2147483705 2147483706 2147483707 2147483708 2147483709 2147483717 2147483650 2147483705 2147483706 2147483707 2147483708 2147483709 2147483717 
2147483810 2147483650 2147483705 2147483706 2147483707 2147483708 2147483709 2147483717 2147483650 2147483705 2147483706 2147483707 2147483708 2147483709 2147483717 
2147483823 2147483650 2147483682 2147483706 2147483707 2147483708 2147483709 2147483717 2147483650 2147483682 2147483706 2147483707 2147483708 2147483709 2147483717 2147483903 2147483903 
2147483827 2147483650 2147483682 2147483706 2147483707 2147483708 2147483709 2147483717 2147483650 2147483682 2147483706 2147483707 2147483708 2147483709 2147483717 
2147483829 2147483650 2147483682 2147483706 2147483707 2147483708 2147483709 2147483717 2147483650 2147483682 2147483706 2147483707 2147483708 2147483709 2147483717 
2147483833 2147483650 2147483682 2147483706 2147483707 2147483708 2147483709 2147483717 2147483650 2147483682 2147483706 2147483707 2147483708 2147483709 2147483717 
2147483846 2147483682 2147483706 2147483707 2147483708 2147483709 2147483717 2147483682 2147483706 2147483707 2147483708 2147483709 2147483717 2147483905 2147483905 
2147483850 2147483682 2147483706 2147483707 2147483708 2147483709 2147483717 2147483682 2147483706 2147483707 2147483708 2147483709 2147483717 
2147483852 2147483682 2147483706 2147483707 2147483708 2147483709 2147483717 2147483682 2147483706 2147483707 2147483708 2147483709 2147483717 
2147483856 2147483682 2147483706 2147483707 2147483708 2147483709 2147483717 2147483682 2147483706 2147483707 2147483708 2147483709 2147483717 
2147483861 2147483682 2147483706 2147483707 2147483708 2147483709 2147483717 2147483682 2147483706 2147483707 2147483708 2147483709 2147483717 2147483912 2147483912 
2147483865 2147483682 2147483706 2147483707 2147483708 2147483709 2147483717 2147483682 2147483706 2147483707 2147483708 2147483709 2147483717 
2147483876 2147483682 2147483706 2147483707 2147483708 2147483709 2147483717 2147483682 2147483706 2147483707 2147483708 2147483709 2147483717 2147483907 2147483913 2147483907 2147483913 
2147483880 2147483682 2147483706 2147483707 2147483708 2147483709 2147483717 2147483682 2147483706 2147483707 2147483708 2147483709 2147483717 2147483907 2147483907 
2147483886 2147483706 2147483707 2147483708 2147483709 2147483717 2147483706 2147483707 2147483708 2147483709 2147483717 2147483908 2 11 19 61 18 247 248 249 250 2147483908 
2147483889 2147483705 2147483706 2147483707 2147483708 2147483709 2147483710 2147483711 2147483712 2147483720 2147483722 2147483723 2147483705 2147483706 2147483707 2147483708 2147483709 2147483710 2147483711 2147483712 2147483720 2147483722 2147483723 127 49 52 54 57 53 128 129 130 
2147483891 2147483650 2147483654 2147483705 2147483706 2147483707 2147483708 2147483709 2147483717 2147483744 2147483650 2147483654 2147483705 2147483706 2147483707 2147483708 2147483709 2147483717 2147483744 2147483900 2147483900 
2147483893 2147483650 2147483654 2147483705 2147483706 2147483707 2147483708 2147483709 2147483717 2147483766 2147483650 2147483654 2147483705 2147483706 2147483707 2147483708 2147483709 2147483717 2147483766 2147483900 2147483900 
2147483895 2147483650 2147483654 2147483672 2147483705 2147483706 2147483707 2147483708 2147483709 2147483717 2147483796 2147483800 2147483650 2147483654 2147483672 2147483705 2147483706 2147483707 2147483708 2147483709 2147483717 2147483796 2147483800 2147483896 2147483900 2147483911 53 49 52 54 57 127 128 129 130 2147483896 2147483900 2147483911 
2147483896 2147483650 2147483705 2147483706 2147483707 2147483708 2147483709 2147483717 2147483806 2147483895 2147483650 2147483705 2147483706 2147483707 2147483708 2147483709 2147483717 2147483806 2147483895 2147483900 53 49 52 54 57 127 128 129 130 2147483900 
2147483900 2147483650 2147483654 2147483658 2147483664 2147483668 2147483672 2147483705 2147483706 2147483707 2147483708 2147483709 2147483717 2147483730 2147483731 2147483744 2147483748 2147483750 2147483754 2147483766 2147483770 2147483772 2147483776 2147483781 2147483785 2147483796 2147483800 2147483806 2147483891 2147483893 2147483895 2147483896 2147483650 2147483654 2147483658 2147483664 2147483668 2147483672 2147483705 2147483706 2147483707 2147483708 2147483709 2147483717 2147483730 2147483731 2147483744 2147483748 2147483750 2147483754 2147483766 2147483770 2147483772 2147483776 2147483781 2147483785 2147483796 2147483800 2147483806 2147483891 2147483893 2147483895 2147483896 2147483910 2147483911 53 49 52 54 57 127 128 129 130 2147483910 2147483911 
2147483903 2147483650 2147483682 2147483706 2147483707 2147483708 2147483709 2147483717 2147483823 2147483650 2147483682 2147483706 2147483707 2147483708 2147483709 2147483717 2147483823 
2147483905 2147483682 2147483706 2147483707 2147483708 2147483709 2147483717 2147483846 2147483682 2147483706 2147483707 2147483708 2147483709 2147483717 2147483846 
2147483907 2147483682 2147483700 2147483706 2147483707 2147483708 2147483709 2147483717 2147483876 2147483880 2147483682 2147483700 2147483706 2147483707 2147483708 2147483709 2147483717 2147483876 2147483880 2147483908 2147483913 53 49 52 54 57 127 128 129 130 2147483908 2147483913 
2147483908 2147483706 2147483707 2147483708 2147483709 2147483717 2147483886 2147483907 2147483706 2147483707 2147483708 2147483709 2147483717 2147483886 2147483907 53 49 52 54 57 127 128 129 130 
2147483910 2147483650 2147483654 2147483705 2147483706 2147483707 2147483708 2147483709 2147483717 2147483781 2147483900 2147483650 2147483654 2147483705 2147483706 2147483707 2147483708 2147483709 2147483717 2147483781 2147483900 
2147483911 2147483650 2147483654 2147483705 2147483706 2147483707 2147483708 2147483709 2147483717 2147483796 2147483895 2147483900 2147483650 2147483654 2147483705 2147483706 2147483707 2147483708 2147483709 2147483717 2147483796 2147483895 2147483900 
2147483912 2147483682 2147483706 2147483707 2147483708 2147483709 2147483717 2147483861 2147483682 2147483706 2147483707 2147483708 2147483709 2147483717 2147483861 
2147483913 2147483682 2147483706 2147483707 2147483708 2147483709 2147483717 2147483876 2147483907 2147483682 2147483706 2147483707 2147483708 2147483709 2147483717 2147483876 2147483907 
